p cnf 108 331
c t mc
-4 2 0
-4 3 0
-2 -3 4 0
6 4 0
6 -5 0
-4 5 -6 0
1 -6 -7 0
-1 6 -7 0
1 6 7 0
-1 -6 7 0
8 -9 -10 0
-8 9 -10 0
8 9 10 0
-8 -9 10 0
-12 -9 0
-12 -11 0
9 11 12 0
13 10 0
13 -12 0
-10 12 -13 0
-14 -15 -16 0
14 15 -16 0
-14 15 16 0
14 -15 16 0
17 -13 0
17 16 0
13 -16 -17 0
20 18 0
20 19 0
-18 -19 -20 0
21 9 0
21 20 0
-9 -20 -21 0
22 21 0
22 -21 0
17 22 -23 0
-17 -22 -23 0
17 -22 23 0
-17 22 23 0
24 7 0
24 23 0
-7 -23 -24 0
14 -25 -26 0
-14 25 -26 0
14 25 26 0
-14 -25 26 0
16 -27 -28 0
-16 27 -28 0
16 27 28 0
-16 -27 28 0
-29 26 0
-29 -28 0
-26 28 29 0
19 30 -31 0
-19 -30 -31 0
19 -30 31 0
-19 30 31 0
-32 29 0
-32 -31 0
-29 31 32 0
11 34 -35 0
-11 -34 -35 0
11 -34 35 0
-11 34 35 0
36 33 0
36 -35 0
-33 35 -36 0
-36 15 -37 0
36 -15 -37 0
-36 -15 37 0
36 15 37 0
38 -2 0
38 -14 0
2 14 -38 0
-40 -39 0
-40 -11 0
39 11 40 0
-38 40 -41 0
38 -40 -41 0
-38 -40 41 0
38 40 41 0
-43 -41 0
-43 42 0
41 -42 43 0
5 21 -44 0
-5 -21 -44 0
5 -21 44 0
-5 21 44 0
-45 30 0
-45 18 0
-30 -18 45 0
46 4 0
46 45 0
-4 -45 -46 0
-47 46 0
-47 45 0
-46 -45 47 0
-48 44 0
-48 47 0
-44 -47 48 0
43 48 -49 0
-43 -48 -49 0
43 -48 49 0
-43 48 49 0
-50 37 0
-50 -49 0
-37 49 50 0
51 -25 -52 0
-51 25 -52 0
51 25 52 0
-51 -25 52 0
-53 -46 0
-53 -52 0
46 52 53 0
-9 -46 -54 0
9 46 -54 0
-9 46 54 0
9 -46 54 0
55 -46 0
55 -54 0
46 54 -55 0
56 -53 0
56 55 0
53 -55 -56 0
58 -51 0
58 -36 0
51 36 -58 0
59 57 0
59 -58 0
-57 58 -59 0
56 59 -60 0
-56 -59 -60 0
56 -59 60 0
-56 59 60 0
-61 50 0
-61 -60 0
-50 60 61 0
-30 -6 -62 0
30 6 -62 0
-30 6 62 0
30 -6 62 0
-63 61 0
-63 -62 0
-61 62 63 0
-64 -47 0
-64 11 0
47 -11 64 0
-38 25 -65 0
38 -25 -65 0
-38 -25 65 0
38 25 65 0
66 64 0
66 -65 0
-64 65 -66 0
16 -65 -67 0
-16 65 -67 0
16 65 67 0
-16 -65 67 0
-68 54 0
-68 -67 0
-54 67 68 0
69 68 0
69 -2 0
-68 2 -69 0
70 -66 0
70 -69 0
66 69 -70 0
71 63 0
71 -70 0
-63 70 -71 0
-32 -71 -72 0
32 71 -72 0
-32 71 72 0
32 -71 72 0
73 25 0
73 30 0
-25 -30 -73 0
-73 9 -74 0
73 -9 -74 0
-73 -9 74 0
73 9 74 0
-75 -74 0
-75 15 0
74 -15 75 0
-76 2 0
-76 5 0
-2 -5 76 0
39 -76 -77 0
-39 76 -77 0
39 76 77 0
-39 -76 77 0
3 77 -78 0
-3 -77 -78 0
3 -77 78 0
-3 77 78 0
75 78 -79 0
-75 -78 -79 0
75 -78 79 0
-75 78 79 0
-80 -1 0
-80 -79 0
1 79 80 0
72 -80 -81 0
-72 80 -81 0
72 80 81 0
-72 -80 81 0
82 -24 0
82 -81 0
24 81 -82 0
83 19 0
83 38 0
-19 -38 -83 0
-84 51 0
-84 -57 0
-51 57 84 0
-83 -84 -85 0
83 84 -85 0
-83 84 85 0
83 -84 85 0
82 85 -86 0
-82 -85 -86 0
82 -85 86 0
-82 85 86 0
-88 -52 0
-88 87 0
52 -87 88 0
-57 11 -89 0
57 -11 -89 0
-57 -11 89 0
57 11 89 0
-90 -88 0
-90 89 0
88 -89 90 0
68 -65 -91 0
-68 65 -91 0
68 65 91 0
-68 -65 91 0
-92 -39 0
-92 -39 0
39 92 0
-93 92 0
-93 -2 0
-92 2 93 0
94 93 0
94 -38 0
-93 38 -94 0
-95 45 0
-95 -94 0
-45 94 95 0
96 -91 0
96 95 0
91 -95 -96 0
97 -90 0
97 -96 0
90 96 -97 0
-98 -73 0
-98 11 0
73 -11 98 0
-9 -10 -99 0
9 10 -99 0
-9 10 99 0
9 -10 99 0
-100 -98 0
-100 99 0
98 -99 100 0
-101 -14 0
-101 58 0
14 -58 101 0
-102 -100 0
-102 101 0
100 -101 102 0
-97 102 -103 0
97 -102 -103 0
-97 -102 103 0
97 102 103 0
92 3 -104 0
-92 -3 -104 0
92 -3 104 0
-92 3 104 0
-105 104 0
-105 11 0
-104 -11 105 0
105 -65 -106 0
-105 65 -106 0
105 65 106 0
-105 -65 106 0
-107 103 0
-107 -106 0
-103 106 107 0
-108 -86 0
-108 107 0
86 -107 108 0
33 44 21 36 28 0
-6 54 99 -67 -87 -78 -77 23 -16 0
-107 26 92 -2 0
-21 -2 -22 0
-104 32 -86 47 0
67 29 89 98 -85 -83 30 14 -97 0
59 -74 68 12 8 0
103 -47 -80 -30 105 35 84 -85 -38 0
-71 -39 -8 0
40 14 -37 -51 -94 -103 0
45 67 -47 -18 -95 -9 -54 0
52 -56 -8 -33 57 -62 30 0
88 -74 2 106 50 83 0
-18 -47 -15 44 0
-63 -12 37 30 -97 -88 -91 27 -25 -43 0
43 -105 -42 -54 -52 20 -5 0
103 105 51 -70 -19 34 -71 -79 -14 0
58 -78 -60 83 -87 0
-83 71 0
68 -16 0
-1 -105 -84 82 28 -53 16 -8 66 0
18 25 19 42 -17 31 -90 0
73 64 7 60 33 -89 74 0
35 -93 -106 0
10 -78 -45 0
-1 102 -11 62 92 0
-4 93 -107 -58 -8 16 103 -50 0
71 -92 -82 -29 91 102 0
-56 104 0
30 52 41 -56 -25 16 -4 -12 48 0
-46 -73 75 80 -14 84 -105 -90 0
-90 -42 89 22 84 0
-28 -69 0
47 -44 -24 -62 92 50 40 26 0
68 70 41 0
13 107 -101 88 99 77 1 34 -32 0
34 88 -22 -76 -65 -21 0
47 32 0
108 0
